
Gurobi 8.1.1 (win64, Python) logging started 05/06/19 12:55:36

Read LP format model from file C:\Users\BrianFrench\Documents\GitHub\PowerGridResearch\PowerGridResearch\Code\PureRoads\tmp21yyzdfj.pyomo.lp
Reading time = 0.09 seconds
x32761: 22885 rows, 32401 columns, 54901 nonzeros
Optimize a model with 22885 rows, 32401 columns and 54901 nonzeros
Model has 12 quadratic constraints
Variable types: 10801 continuous, 21600 integer (21600 binary)
Coefficient statistics:
  Matrix range     [1e+00, 4e+04]
  QMatrix range    [1e+00, 1e+00]
  Objective range  [3e+00, 2e+04]
  Bounds range     [1e+00, 1e+00]
  RHS range        [1e+00, 4e+04]
  QRHS range       [8e+00, 8e+00]
Presolve removed 22610 rows and 30944 columns
Presolve time: 0.05s

Explored 0 nodes (0 simplex iterations) in 0.08 seconds
Thread count was 1 (of 6 available processors)

Solution count 0

Best objective -, best bound -, gap -

Gurobi 8.1.1 (win64, Python) logging started 05/06/19 15:03:00

Optimize a model with 21792 rows, 16200 columns and 72720 nonzeros
Variable types: 0 continuous, 16200 integer (16200 binary)
Coefficient statistics:
  Matrix range     [1e+00, 4e+04]
  Objective range  [2e+00, 1e+02]
  Bounds range     [1e+00, 1e+00]
  RHS range        [1e+00, 4e+04]
Presolve removed 5280 rows and 0 columns
Presolve time: 0.04s

Explored 0 nodes (0 simplex iterations) in 0.06 seconds
Thread count was 1 (of 6 available processors)

Solution count 0

Model is infeasible
Best objective -, best bound -, gap -
Optimize a model with 21792 rows, 16200 columns and 72720 nonzeros
Variable types: 0 continuous, 16200 integer (16200 binary)
Coefficient statistics:
  Matrix range     [4e-02, 8e+02]
  Objective range  [2e+00, 1e+02]
  Bounds range     [1e+00, 1e+00]
  RHS range        [1e+00, 5e+02]
Found heuristic solution: objective 468.2854327
Presolve removed 21633 rows and 15826 columns
Presolve time: 0.04s
Presolved: 159 rows, 374 columns, 1108 nonzeros
Variable types: 0 continuous, 374 integer (374 binary)

Root relaxation: objective -4.263256e-12, 10 iterations, 0.03 seconds

    Nodes    |    Current Node    |     Objective Bounds      |     Work
 Expl Unexpl |  Obj  Depth IntInf | Incumbent    BestBd   Gap | It/Node Time

*    0     0               0      -0.0000000   -0.00000  0.00%     -    0s

Explored 0 nodes (10 simplex iterations) in 0.18 seconds
Thread count was 6 (of 6 available processors)

Solution count 2: -4.26326e-12 468.285 

Optimal solution found (tolerance 1.00e-04)
Best objective 0.000000000000e+00, best bound -4.263256414561e-12, gap 0.0000%
Optimize a model with 21792 rows, 16200 columns and 72720 nonzeros
Variable types: 0 continuous, 16200 integer (16200 binary)
Coefficient statistics:
  Matrix range     [4e-02, 8e+02]
  Objective range  [2e+00, 1e+02]
  Bounds range     [1e+00, 1e+00]
  RHS range        [1e+00, 5e+02]
Found heuristic solution: objective 1595.7916514
Presolve removed 21609 rows and 15812 columns
Presolve time: 0.02s
Presolved: 183 rows, 388 columns, 1186 nonzeros
Variable types: 0 continuous, 388 integer (388 binary)

Root relaxation: objective 7.544166e+02, 17 iterations, 0.00 seconds

    Nodes    |    Current Node    |     Objective Bounds      |     Work
 Expl Unexpl |  Obj  Depth IntInf | Incumbent    BestBd   Gap | It/Node Time

*    0     0               0     754.4166006  754.41660  0.00%     -    0s

Explored 0 nodes (17 simplex iterations) in 0.03 seconds
Thread count was 6 (of 6 available processors)

Solution count 2: 754.417 1595.79 

Optimal solution found (tolerance 1.00e-04)
Best objective 7.544166006313e+02, best bound 7.544166006313e+02, gap 0.0000%

Gurobi 8.1.1 (win64, Python) logging started 05/07/19 14:01:06

Optimize a model with 210582 rows, 16200 columns and 169983720 nonzeros
Variable types: 0 continuous, 16200 integer (16200 binary)
Coefficient statistics:
  Matrix range     [4e-02, 8e+02]
  Objective range  [2e+00, 1e+02]
  Bounds range     [1e+00, 1e+00]
  RHS range        [1e+00, 5e+02]
Found heuristic solution: objective 1480.0535175
Presolve removed 0 rows and 0 columns (presolve time = 5s) ...
Presolve removed 5300 rows and 0 columns (presolve time = 18s) ...
Presolve removed 5300 rows and 30 columns (presolve time = 33s) ...
Presolve removed 15530 rows and 10250 columns (presolve time = 60s) ...
Presolve removed 15530 rows and 10250 columns (presolve time = 74s) ...
Presolve removed 20456 rows and 15174 columns (presolve time = 76s) ...
Presolve removed 209750 rows and 15185 columns (presolve time = 98s) ...
Presolve removed 209750 rows and 15185 columns (presolve time = 100s) ...
Presolve removed 210240 rows and 15705 columns (presolve time = 119s) ...
Presolve removed 210582 rows and 16200 columns
Presolve time: 118.97s
Presolve: All rows and columns removed

Explored 0 nodes (0 simplex iterations) in 125.71 seconds
Thread count was 1 (of 6 available processors)

Solution count 2: 1425.79 1480.05 

Optimal solution found (tolerance 1.00e-04)
Best objective 1.425792846240e+03, best bound 1.425792846240e+03, gap 0.0000%
Optimize a model with 210582 rows, 16200 columns and 169983720 nonzeros
Variable types: 5400 continuous, 10800 integer (10800 binary)
Coefficient statistics:
  Matrix range     [4e-02, 8e+02]
  Objective range  [2e+00, 1e+02]
  Bounds range     [1e+00, 1e+00]
  RHS range        [1e+00, 5e+02]
Found heuristic solution: objective 880.2764449
Presolve removed 0 rows and 0 columns (presolve time = 5s) ...
Presolve removed 5350 rows and 0 columns (presolve time = 22s) ...
Presolve removed 10690 rows and 5350 columns (presolve time = 34s) ...
Presolve removed 10690 rows and 5380 columns (presolve time = 49s) ...
Presolve removed 15640 rows and 10300 columns (presolve time = 75s) ...
Presolve removed 15640 rows and 10300 columns (presolve time = 89s) ...
Presolve removed 20560 rows and 15220 columns (presolve time = 90s) ...
Presolve removed 209344 rows and 15220 columns (presolve time = 113s) ...
Presolve removed 209344 rows and 15220 columns (presolve time = 115s) ...
Presolve removed 209784 rows and 15680 columns (presolve time = 133s) ...
Presolve removed 210582 rows and 16200 columns
Presolve time: 132.71s
Presolve: All rows and columns removed

Explored 0 nodes (0 simplex iterations) in 139.10 seconds
Thread count was 1 (of 6 available processors)

Solution count 1: 880.276 

Optimal solution found (tolerance 1.00e-04)
Best objective 8.802764449396e+02, best bound 8.802764449396e+02, gap 0.0000%
Optimize a model with 210582 rows, 16200 columns and 169983720 nonzeros
Variable types: 5400 continuous, 10800 integer (10800 binary)
Coefficient statistics:
  Matrix range     [4e-02, 8e+02]
  Objective range  [2e+00, 1e+02]
  Bounds range     [1e+00, 1e+00]
  RHS range        [1e+00, 5e+02]
Found heuristic solution: objective 999.3491583
Presolve removed 0 rows and 0 columns (presolve time = 5s) ...
Presolve removed 5340 rows and 0 columns (presolve time = 22s) ...
Presolve removed 10668 rows and 5340 columns (presolve time = 33s) ...
Presolve removed 10668 rows and 5370 columns (presolve time = 47s) ...
Presolve removed 15618 rows and 10290 columns (presolve time = 74s) ...
Presolve removed 15618 rows and 10290 columns (presolve time = 88s) ...
Presolve removed 209322 rows and 15210 columns (presolve time = 112s) ...
Presolve removed 209322 rows and 15210 columns (presolve time = 115s) ...
Presolve removed 209754 rows and 15660 columns (presolve time = 131s) ...
Presolve removed 210582 rows and 16200 columns
Presolve time: 131.27s
Presolve: All rows and columns removed

Explored 0 nodes (0 simplex iterations) in 137.65 seconds
Thread count was 1 (of 6 available processors)

Solution count 2: 988.363 999.349 

Optimal solution found (tolerance 1.00e-04)
Best objective 9.883634220527e+02, best bound 9.883634220527e+02, gap 0.0000%

Gurobi 8.1.1 (win64, Python) logging started 06/16/19 13:02:57

Optimize a model with 210582 rows, 16200 columns and 169983720 nonzeros
Variable types: 5400 continuous, 10800 integer (10800 binary)
Coefficient statistics:
  Matrix range     [4e-02, 8e+02]
  Objective range  [2e+00, 1e+02]
  Bounds range     [1e+00, 1e+00]
  RHS range        [1e+00, 5e+02]
Found heuristic solution: objective 1014.7292126
Presolve removed 0 rows and 0 columns (presolve time = 5s) ...
Presolve removed 5350 rows and 0 columns (presolve time = 21s) ...
Presolve removed 10690 rows and 5350 columns (presolve time = 33s) ...
Presolve removed 10690 rows and 5380 columns (presolve time = 47s) ...
Presolve removed 15640 rows and 10300 columns (presolve time = 73s) ...
Presolve removed 15640 rows and 10300 columns (presolve time = 87s) ...
Presolve removed 209344 rows and 15220 columns (presolve time = 113s) ...
Presolve removed 209344 rows and 15220 columns (presolve time = 115s) ...
Presolve removed 209784 rows and 15680 columns (presolve time = 134s) ...
Presolve removed 210582 rows and 16200 columns
Presolve time: 133.64s
Presolve: All rows and columns removed

Explored 0 nodes (0 simplex iterations) in 139.88 seconds
Thread count was 1 (of 6 available processors)

Solution count 2: 1003.74 1014.73 

Optimal solution found (tolerance 1.00e-04)
Best objective 1.003743476419e+03, best bound 1.003743476419e+03, gap 0.0000%

Gurobi 8.1.1 (win64, Python) logging started 06/30/19 13:26:17

Optimize a model with 210582 rows, 16200 columns and 169983720 nonzeros
Variable types: 5400 continuous, 10800 integer (10800 binary)
Coefficient statistics:
  Matrix range     [4e-02, 8e+02]
  Objective range  [2e+00, 1e+02]
  Bounds range     [1e+00, 1e+00]
  RHS range        [1e+00, 5e+02]
Found heuristic solution: objective 1353.5348908
Presolve removed 0 rows and 0 columns (presolve time = 5s) ...
Presolve removed 5300 rows and 0 columns (presolve time = 21s) ...
Presolve removed 10580 rows and 5300 columns (presolve time = 34s) ...
Presolve removed 10580 rows and 5330 columns (presolve time = 49s) ...
Presolve removed 15530 rows and 10250 columns (presolve time = 76s) ...
Presolve removed 15530 rows and 10250 columns (presolve time = 89s) ...
Presolve removed 20450 rows and 15170 columns (presolve time = 91s) ...
Presolve removed 209234 rows and 15170 columns (presolve time = 113s) ...
Presolve removed 209234 rows and 15170 columns (presolve time = 115s) ...
Presolve removed 209634 rows and 15568 columns (presolve time = 133s) ...
Presolve removed 210582 rows and 16200 columns
Presolve time: 133.16s
Presolve: All rows and columns removed

Explored 0 nodes (0 simplex iterations) in 139.56 seconds
Thread count was 1 (of 6 available processors)

Solution count 1: 1353.53 

Optimal solution found (tolerance 1.00e-04)
Best objective 1.353534890797e+03, best bound 1.353534890797e+03, gap 0.0000%
Optimize a model with 210582 rows, 16200 columns and 2922840 nonzeros
Variable types: 5400 continuous, 10800 integer (10800 binary)
Coefficient statistics:
  Matrix range     [4e-02, 8e+02]
  Objective range  [2e+00, 1e+02]
  Bounds range     [1e+00, 1e+00]
  RHS range        [1e+00, 5e+02]
Found heuristic solution: objective 574.2546385
Presolve removed 206489 rows and 15685 columns
Presolve time: 1.33s
Presolved: 4093 rows, 515 columns, 19069 nonzeros
Variable types: 49 continuous, 466 integer (466 binary)

Root relaxation: objective 1.686103e+01, 500 iterations, 0.03 seconds

    Nodes    |    Current Node    |     Objective Bounds      |     Work
 Expl Unexpl |  Obj  Depth IntInf | Incumbent    BestBd   Gap | It/Node Time

     0     0   16.86103    0    4  574.25464   16.86103  97.1%     -    1s
H    0     0                      85.2847121   16.86103  80.2%     -    1s
     0     0   16.86103    0    5   85.28471   16.86103  80.2%     -    1s
     0     0   17.05816    0   40   85.28471   17.05816  80.0%     -    1s
     0     0   17.37358    0   35   85.28471   17.37358  79.6%     -    1s
     0     0   17.37358    0   41   85.28471   17.37358  79.6%     -    1s
     0     0   17.37358    0   45   85.28471   17.37358  79.6%     -    1s
     0     0   17.37358    0   45   85.28471   17.37358  79.6%     -    1s
     0     0   17.37358    0   39   85.28471   17.37358  79.6%     -    1s
     0     0   17.95934    0   37   85.28471   17.95934  78.9%     -    1s
     0     0   17.95934    0   41   85.28471   17.95934  78.9%     -    1s
     0     0   17.95934    0   44   85.28471   17.95934  78.9%     -    1s
     0     0   17.95934    0   44   85.28471   17.95934  78.9%     -    1s
     0     2   17.95934    0   44   85.28471   17.95934  78.9%     -    1s

Cutting planes:
  Clique: 1
  MIR: 1

Explored 5437 nodes (52080 simplex iterations) in 3.24 seconds
Thread count was 6 (of 6 available processors)

Solution count 2: 85.2847 574.255 

Optimal solution found (tolerance 1.00e-04)
Best objective 8.528471205727e+01, best bound 8.528471205727e+01, gap 0.0000%

Gurobi 8.1.1 (win64, Python) logging started 09/25/19 12:23:49

Optimize a model with 210582 rows, 16200 columns and 2922840 nonzeros
Variable types: 5400 continuous, 10800 integer (10800 binary)
Coefficient statistics:
  Matrix range     [4e-02, 8e+02]
  Objective range  [2e+00, 1e+02]
  Bounds range     [1e+00, 1e+00]
  RHS range        [1e+00, 5e+02]
Found heuristic solution: objective 1066.8706103
Presolve removed 206383 rows and 15649 columns
Presolve time: 1.10s
Presolved: 4199 rows, 551 columns, 19158 nonzeros
Variable types: 69 continuous, 482 integer (482 binary)

Root relaxation: objective 3.763226e+01, 523 iterations, 0.02 seconds

    Nodes    |    Current Node    |     Objective Bounds      |     Work
 Expl Unexpl |  Obj  Depth IntInf | Incumbent    BestBd   Gap | It/Node Time

     0     0   37.63226    0   49 1066.87061   37.63226  96.5%     -    1s
H    0     0                     278.3960252   37.63226  86.5%     -    1s
H    0     0                     237.7589512   37.63226  84.2%     -    1s
H    0     0                      97.2359939   37.63226  61.3%     -    1s
H    0     0                      38.4745995   37.63226  2.19%     -    1s
     0     0     cutoff    0        38.47460   38.47460  0.00%     -    1s

Cutting planes:
  Gomory: 1
  Implied bound: 4
  MIR: 7
  Zero half: 9

Explored 1 nodes (849 simplex iterations) in 1.43 seconds
Thread count was 6 (of 6 available processors)

Solution count 5: 38.4746 97.236 237.759 ... 1066.87

Optimal solution found (tolerance 1.00e-04)
Best objective 3.847459954899e+01, best bound 3.847459954899e+01, gap 0.0000%
Optimize a model with 210582 rows, 16200 columns and 2922840 nonzeros
Variable types: 5400 continuous, 10800 integer (10800 binary)
Coefficient statistics:
  Matrix range     [4e-02, 8e+02]
  Objective range  [2e+00, 1e+02]
  Bounds range     [1e+00, 1e+00]
  RHS range        [1e+00, 5e+02]
Found heuristic solution: objective 1066.8706103
Presolve removed 206383 rows and 15649 columns
Presolve time: 1.02s
Presolved: 4199 rows, 551 columns, 19158 nonzeros
Variable types: 69 continuous, 482 integer (482 binary)

Root relaxation: objective 3.763226e+01, 523 iterations, 0.01 seconds

    Nodes    |    Current Node    |     Objective Bounds      |     Work
 Expl Unexpl |  Obj  Depth IntInf | Incumbent    BestBd   Gap | It/Node Time

     0     0   37.63226    0   49 1066.87061   37.63226  96.5%     -    1s
H    0     0                     278.3960252   37.63226  86.5%     -    1s
H    0     0                     237.7589512   37.63226  84.2%     -    1s
H    0     0                      97.2359939   37.63226  61.3%     -    1s
H    0     0                      38.4745995   37.63226  2.19%     -    1s
     0     0     cutoff    0        38.47460   38.47460  0.00%     -    1s

Cutting planes:
  Gomory: 1
  Implied bound: 4
  MIR: 7
  Zero half: 9

Explored 1 nodes (849 simplex iterations) in 1.27 seconds
Thread count was 6 (of 6 available processors)

Solution count 5: 38.4746 97.236 237.759 ... 1066.87

Optimal solution found (tolerance 1.00e-04)
Best objective 3.847459954899e+01, best bound 3.847459954899e+01, gap 0.0000%
Optimize a model with 210582 rows, 16200 columns and 2922840 nonzeros
Variable types: 5400 continuous, 10800 integer (10800 binary)
Coefficient statistics:
  Matrix range     [4e-02, 2e+03]
  Objective range  [2e+00, 1e+02]
  Bounds range     [1e+00, 1e+00]
  RHS range        [1e+00, 1e+03]
Found heuristic solution: objective 1160.9099638
Presolve removed 206383 rows and 15649 columns
Presolve time: 0.96s
Presolved: 4199 rows, 551 columns, 19158 nonzeros
Variable types: 69 continuous, 482 integer (482 binary)

Root relaxation: objective 4.684735e+01, 501 iterations, 0.01 seconds

    Nodes    |    Current Node    |     Objective Bounds      |     Work
 Expl Unexpl |  Obj  Depth IntInf | Incumbent    BestBd   Gap | It/Node Time

     0     0   46.84735    0   34 1160.90996   46.84735  96.0%     -    1s
H    0     0                     587.0137335   46.84735  92.0%     -    1s
     0     0   46.84735    0   34  587.01373   46.84735  92.0%     -    1s
H    0     0                     502.1122497   46.84735  90.7%     -    1s
H    0     0                     339.5485269   46.84735  86.2%     -    1s
     0     0   53.00199    0   38  339.54853   53.00199  84.4%     -    1s
     0     0   57.56596    0   45  339.54853   57.56596  83.0%     -    1s
     0     0   57.56596    0   60  339.54853   57.56596  83.0%     -    1s
     0     0   57.56596    0   60  339.54853   57.56596  83.0%     -    1s
     0     0   57.56596    0   64  339.54853   57.56596  83.0%     -    1s
     0     0   57.56596    0   70  339.54853   57.56596  83.0%     -    1s
     0     0   57.56596    0   70  339.54853   57.56596  83.0%     -    1s
     0     0   57.56596    0   72  339.54853   57.56596  83.0%     -    1s
     0     0   57.56596    0   78  339.54853   57.56596  83.0%     -    1s
H    0     0                     260.1820870   57.56596  77.9%     -    1s
     0     0   58.66219    0   84  260.18209   58.66219  77.5%     -    1s
     0     0   58.66219    0   84  260.18209   58.66219  77.5%     -    1s
     0     0   58.66219    0   78  260.18209   58.66219  77.5%     -    1s
H    0     0                     130.4561361   58.66219  55.0%     -    1s
     0     0   58.66219    0   70  130.45614   58.66219  55.0%     -    1s
     0     2   58.66219    0   68  130.45614   58.66219  55.0%     -    1s
H   74    64                     125.9214463   65.91552  47.7%  23.0    1s
H   77    66                     125.2508520   65.91552  47.4%  22.5    1s
H   83    71                     114.2651157   65.91552  42.3%  21.7    1s
*  114    71              19     109.7082338   65.91552  39.9%  18.5    1s
H  138    60                      95.4969743   66.06203  30.8%  16.7    1s
*  805    34               9      94.2287630   85.37850  9.39%  16.1    1s

Cutting planes:
  Gomory: 7
  Implied bound: 11
  MIR: 24
  Inf proof: 1
  Zero half: 16

Explored 904 nodes (15633 simplex iterations) in 1.86 seconds
Thread count was 6 (of 6 available processors)

Solution count 10: 94.2288 95.497 109.708 ... 502.112

Optimal solution found (tolerance 1.00e-04)
Best objective 9.422876304821e+01, best bound 9.422876304820e+01, gap 0.0000%

Gurobi 8.1.1 (win64, Python) logging started 09/30/19 16:42:47


Gurobi 8.1.1 (win64, Python) logging started 10/02/19 10:52:10

Optimize a model with 16843068 rows, 16200 columns and 751079340 nonzeros
Variable types: 5400 continuous, 10800 integer (10800 binary)
Coefficient statistics:
  Matrix range     [4e-02, 1e+03]
  Objective range  [2e+00, 1e+02]
  Bounds range     [1e+00, 1e+00]
  RHS range        [1e+00, 5e+02]

Explored 0 nodes (0 simplex iterations) in 9.74 seconds
Thread count was 1 (of 6 available processors)

Solution count 0

Best objective -, best bound -, gap -
Changed value of parameter NodefileStart to 5.0
   Prev: 1e+100  Min: 0.0  Max: 1e+100  Default: 1e+100
Parameter NodefileStart unchanged
   Value: 5.0  Min: 0.0  Max: 1e+100  Default: 1e+100
Optimize a model with 1065618 rows, 16200 columns and 24298740 nonzeros
Variable types: 5400 continuous, 10800 integer (10800 binary)
Coefficient statistics:
  Matrix range     [4e-02, 1e+03]
  Objective range  [2e+00, 1e+02]
  Bounds range     [1e+00, 1e+00]
  RHS range        [1e+00, 5e+02]
Found heuristic solution: objective 1045.9515787

Explored 0 nodes (0 simplex iterations) in 1.15 seconds
Thread count was 1 (of 6 available processors)

Solution count 1: 1045.95 

Best objective 1.045951578717e+03, best bound -, gap -
Parameter NodefileStart unchanged
   Value: 5.0  Min: 0.0  Max: 1e+100  Default: 1e+100
Optimize a model with 21792 rows, 16200 columns and 72720 nonzeros
Variable types: 5400 continuous, 10800 integer (10800 binary)
Coefficient statistics:
  Matrix range     [4e-02, 1e+03]
  Objective range  [2e+00, 1e+02]
  Bounds range     [1e+00, 1e+00]
  RHS range        [1e+00, 5e+02]
Found heuristic solution: objective 1045.9515787
Presolve removed 21367 rows and 15649 columns
Presolve time: 0.05s
Presolved: 425 rows, 551 columns, 1920 nonzeros
Variable types: 69 continuous, 482 integer (482 binary)

Root relaxation: objective 1.077033e+01, 28 iterations, 0.00 seconds

    Nodes    |    Current Node    |     Objective Bounds      |     Work
 Expl Unexpl |  Obj  Depth IntInf | Incumbent    BestBd   Gap | It/Node Time

     0     0   10.77033    0    2 1045.95158   10.77033  99.0%     -    0s
H    0     0                      10.7703296   10.77033  0.00%     -    0s

Explored 1 nodes (28 simplex iterations) in 0.10 seconds
Thread count was 6 (of 6 available processors)

Solution count 2: 10.7703 1045.95 

Optimal solution found (tolerance 1.00e-04)
Best objective 1.077032961427e+01, best bound 1.077032961427e+01, gap 0.0000%

Gurobi 8.1.1 (win64, Python) logging started 10/02/19 13:15:14

Changed value of parameter NodefileStart to 5.0
   Prev: 1e+100  Min: 0.0  Max: 1e+100  Default: 1e+100
Optimize a model with 1041258 rows, 16200 columns and 24079500 nonzeros
Variable types: 5400 continuous, 10800 integer (10800 binary)
Coefficient statistics:
  Matrix range     [4e-02, 1e+03]
  Objective range  [1e-03, 1e+02]
  Bounds range     [1e+00, 1e+00]
  RHS range        [1e+00, 5e+02]
Found heuristic solution: objective 1045.9551342
Presolve removed 10646 rows and 5330 columns (presolve time = 5s) ...
Presolve removed 981812 rows and 10280 columns (presolve time = 11s) ...
Presolve removed 1028473 rows and 15649 columns
Presolve time: 14.06s
Presolved: 12785 rows, 551 columns, 76620 nonzeros
Variable types: 69 continuous, 482 integer (482 binary)

Root simplex log...

Iteration    Objective       Primal Inf.    Dual Inf.      Time
       0   -5.1779495e+05   0.000000e+00   1.905645e+06     15s
    1271    3.5319791e+01   0.000000e+00   0.000000e+00     15s
    1271    3.5319791e+01   0.000000e+00   0.000000e+00     15s

Root relaxation: objective 3.531979e+01, 1271 iterations, 0.09 seconds

    Nodes    |    Current Node    |     Objective Bounds      |     Work
 Expl Unexpl |  Obj  Depth IntInf | Incumbent    BestBd   Gap | It/Node Time

     0     0   35.31979    0   26 1045.95513   35.31979  96.6%     -   15s
H    0     0                     519.9976888   35.31979  93.2%     -   15s
H    0     0                     510.4385832   35.31979  93.1%     -   15s
H    0     0                     510.4344555   35.31979  93.1%     -   15s
H    0     0                     505.0492736   35.31979  93.0%     -   15s
H    0     0                      37.7318089   36.74609  2.61%     -   15s
     0     0   37.72712    0   28   37.73181   37.72712  0.01%     -   15s
     0     0   37.72995    0   60   37.73181   37.72995  0.00%     -   15s

Cutting planes:
  Gomory: 5
  Implied bound: 5
  Clique: 9
  MIR: 19
  Zero half: 14

Explored 1 nodes (1363 simplex iterations) in 15.84 seconds
Thread count was 6 (of 6 available processors)

Solution count 6: 37.7318 505.049 510.434 ... 1045.96

Optimal solution found (tolerance 1.00e-04)
Best objective 3.773180885656e+01, best bound 3.772995277478e+01, gap 0.0049%

Gurobi 8.1.1 (win64, Python) logging started 10/02/19 14:28:38

Changed value of parameter NodefileStart to 5.0
   Prev: 1e+100  Min: 0.0  Max: 1e+100  Default: 1e+100
Optimize a model with 16818708 rows, 16200 columns and 750860100 nonzeros
Variable types: 5400 continuous, 10800 integer (10800 binary)
Coefficient statistics:
  Matrix range     [4e-02, 1e+03]
  Objective range  [1e-03, 1e+02]
  Bounds range     [1e+00, 1e+00]
  RHS range        [1e+00, 5e+02]
Found heuristic solution: objective 1045.9551342

Explored 0 nodes (0 simplex iterations) in 78.46 seconds
Thread count was 1 (of 6 available processors)

Solution count 1: 1045.96 

Best objective 1.045955134214e+03, best bound -, gap -

Gurobi 8.1.1 (win64, Python) logging started 10/02/19 15:03:49

Changed value of parameter NodefileStart to 5.0
   Prev: 1e+100  Min: 0.0  Max: 1e+100  Default: 1e+100
Optimize a model with 4603908 rows, 16200 columns and 152334900 nonzeros
Variable types: 5400 continuous, 10800 integer (10800 binary)
Coefficient statistics:
  Matrix range     [4e-02, 1e+03]
  Objective range  [1e-03, 1e+02]
  Bounds range     [1e+00, 1e+00]
  RHS range        [1e+00, 5e+02]
Found heuristic solution: objective 1045.9551342
Presolve removed 0 rows and 0 columns (presolve time = 8s) ...
Presolve removed 5330 rows and 0 columns (presolve time = 12s) ...
Presolve removed 5330 rows and 0 columns (presolve time = 25s) ...
Presolve removed 10646 rows and 5330 columns (presolve time = 41s) ...
Presolve removed 10646 rows and 5360 columns (presolve time = 54s) ...
Presolve removed 4059614 rows and 10280 columns (presolve time = 80s) ...
Presolve removed 4059614 rows and 10280 columns (presolve time = 93s) ...
Presolve removed 4525376 rows and 15200 columns (presolve time = 96s) ...
Presolve removed 4525786 rows and 15634 columns (presolve time = 109s) ...
Presolve removed 4527186 rows and 15634 columns (presolve time = 110s) ...
Presolve removed 4568302 rows and 15648 columns (presolve time = 115s) ...
Presolve removed 4580245 rows and 15649 columns
Presolve time: 119.13s
Presolved: 23663 rows, 551 columns, 172807 nonzeros
Variable types: 69 continuous, 482 integer (482 binary)

Root simplex log...

Iteration    Objective       Primal Inf.    Dual Inf.      Time
       0   -4.7674377e+03   0.000000e+00   9.997363e+03    131s
    2432    3.3483827e+01   0.000000e+00   0.000000e+00    131s
    2432    3.3483827e+01   0.000000e+00   0.000000e+00    131s

Root relaxation: objective 3.348383e+01, 2432 iterations, 0.14 seconds

    Nodes    |    Current Node    |     Objective Bounds      |     Work
 Expl Unexpl |  Obj  Depth IntInf | Incumbent    BestBd   Gap | It/Node Time

     0     0   33.48383    0   24 1045.95513   33.48383  96.8%     -  131s
H    0     0                     489.2336585   33.48383  93.2%     -  131s
     0     0   35.32011    0   36  489.23366   35.32011  92.8%     -  131s
H    0     0                     413.8391233   35.32011  91.5%     -  131s
     0     0   35.80157    0   40  413.83912   35.80157  91.3%     -  131s
H    0     0                      48.2201934   35.80157  25.8%     -  131s
H    0     0                      37.7318089   35.80157  5.12%     -  131s
     0     0   37.72776    0   44   37.73181   37.72776  0.01%     -  131s
     0     0   37.72818    0   52   37.73181   37.72818  0.01%     -  131s

Cutting planes:
  Gomory: 7
  MIR: 15
  Zero half: 12

Explored 1 nodes (2537 simplex iterations) in 133.99 seconds
Thread count was 6 (of 6 available processors)

Solution count 5: 37.7318 48.2202 413.839 ... 1045.96

Optimal solution found (tolerance 1.00e-04)
Best objective 3.773180885656e+01, best bound 3.772817506939e+01, gap 0.0096%
Parameter NodefileStart unchanged
   Value: 5.0  Min: 0.0  Max: 1e+100  Default: 1e+100
Optimize a model with 4603908 rows, 16200 columns and 152334900 nonzeros
Variable types: 5400 continuous, 10800 integer (10800 binary)
Coefficient statistics:
  Matrix range     [4e-02, 2e+03]
  Objective range  [1e-03, 1e+02]
  Bounds range     [1e+00, 1e+00]
  RHS range        [1e+00, 1e+03]
Found heuristic solution: objective 1045.9568868
Presolve removed 0 rows and 0 columns (presolve time = 8s) ...
Presolve removed 5330 rows and 0 columns (presolve time = 12s) ...
Presolve removed 5330 rows and 0 columns (presolve time = 25s) ...
Presolve removed 10646 rows and 5330 columns (presolve time = 42s) ...
Presolve removed 10646 rows and 5360 columns (presolve time = 55s) ...
Presolve removed 4059614 rows and 10280 columns (presolve time = 81s) ...
Presolve removed 4059614 rows and 10280 columns (presolve time = 94s) ...
Presolve removed 4525376 rows and 15200 columns (presolve time = 97s) ...
Presolve removed 4525786 rows and 15634 columns (presolve time = 111s) ...
Presolve removed 4567234 rows and 15648 columns (presolve time = 115s) ...
Presolve removed 4580242 rows and 15648 columns (presolve time = 120s) ...
Presolve removed 4580245 rows and 15649 columns
Presolve time: 120.73s
Presolved: 23663 rows, 551 columns, 172807 nonzeros
Variable types: 69 continuous, 482 integer (482 binary)

Root simplex log...

Iteration    Objective       Primal Inf.    Dual Inf.      Time
       0   -4.3174377e+03   0.000000e+00   6.883805e+03    134s
    2511    3.5937852e+01   0.000000e+00   0.000000e+00    134s
    2511    3.5937852e+01   0.000000e+00   0.000000e+00    134s

Root relaxation: objective 3.593785e+01, 2511 iterations, 0.11 seconds

    Nodes    |    Current Node    |     Objective Bounds      |     Work
 Expl Unexpl |  Obj  Depth IntInf | Incumbent    BestBd   Gap | It/Node Time

     0     0   35.93785    0   26 1045.95689   35.93785  96.6%     -  133s
H    0     0                     909.7660303   35.93785  96.0%     -  133s
H    0     0                     597.8193097   35.93785  94.0%     -  133s
     0     0   36.44569    0   36  597.81931   36.44569  93.9%     -  133s
H    0     0                     587.0465608   36.44569  93.8%     -  133s
     0     0   36.59870    0   38  587.04656   36.59870  93.8%     -  133s
     0     0   39.71232    0   53  587.04656   39.71232  93.2%     -  134s
H    0     0                      63.3805218   39.71232  37.3%     -  134s
     0     0   39.71232    0   52   63.38052   39.71232  37.3%     -  134s
     0     0   39.71232    0   54   63.38052   39.71232  37.3%     -  134s
     0     0   42.70205    0   54   63.38052   42.70205  32.6%     -  134s
     0     0   42.70205    0   61   63.38052   42.70205  32.6%     -  134s
     0     0   43.48165    0   71   63.38052   43.48165  31.4%     -  134s
     0     0   45.64544    0   71   63.38052   45.64544  28.0%     -  134s
     0     0   46.67441    0   77   63.38052   46.67441  26.4%     -  135s
     0     0   46.67441    0   76   63.38052   46.67441  26.4%     -  135s
     0     0   47.30386    0   76   63.38052   47.30386  25.4%     -  135s
     0     0   47.30386    0   76   63.38052   47.30386  25.4%     -  135s
     0     2   47.30386    0   76   63.38052   47.30386  25.4%     -  135s
*   82    19              10      63.3805019   54.35714  14.2%  22.8  136s

Cutting planes:
  Gomory: 4
  MIR: 30
  Zero half: 29

Explored 143 nodes (5327 simplex iterations) in 139.55 seconds
Thread count was 6 (of 6 available processors)

Solution count 6: 63.3805 63.3805 587.047 ... 1045.96

Optimal solution found (tolerance 1.00e-04)
Best objective 6.338050187221e+01, best bound 6.338050187221e+01, gap 0.0000%
Parameter NodefileStart unchanged
   Value: 5.0  Min: 0.0  Max: 1e+100  Default: 1e+100
Parameter NodefileStart unchanged
   Value: 5.0  Min: 0.0  Max: 1e+100  Default: 1e+100
